(set-logic QF_S)
(declare-fun var_0xINPUT_155067 () String)
(assert (and (= (len var_0xINPUT_155067) 0) (= (len var_0xINPUT_155067) 0) (not (= var_0xINPUT_155067 "Example:")) (not (= var_0xINPUT_155067 "CQALcCP5TB"))))
(check-sat var_0xINPUT_155067)